p edge 248 233
e 1 2
e 1 3
e 1 4
e 1 5
e 1 6
e 1 7
e 1 8
e 1 9
e 1 10
e 1 11
e 1 12
e 1 13
e 1 14
e 1 15
e 1 16
e 1 17
e 1 18
e 1 19
e 1 20
e 21 22
e 21 23
e 21 24
e 21 25
e 21 26
e 21 27
e 21 28
e 21 29
e 21 30
e 21 31
e 21 32
e 21 33
e 21 34
e 21 35
e 21 36
e 21 37
e 21 38
e 21 39
e 21 40
e 21 41
e 42 43
e 42 44
e 42 45
e 42 46
e 42 47
e 42 48
e 42 49
e 42 50
e 42 51
e 42 52
e 42 53
e 42 54
e 42 55
e 42 56
e 42 57
e 42 58
e 59 60
e 59 61
e 59 62
e 59 63
e 59 64
e 59 65
e 59 66
e 59 67
e 59 68
e 59 69
e 59 70
e 59 71
e 59 72
e 59 73
e 74 75
e 74 76
e 74 77
e 74 78
e 74 79
e 74 80
e 74 81
e 74 82
e 74 83
e 74 84
e 74 85
e 74 86
e 74 87
e 74 88
e 89 90
e 89 91
e 89 92
e 89 93
e 89 94
e 89 95
e 89 96
e 89 97
e 89 98
e 89 99
e 89 100
e 89 101
e 89 102
e 103 104
e 103 105
e 103 106
e 103 107
e 103 108
e 103 109
e 103 110
e 103 111
e 103 112
e 103 113
e 103 114
e 103 115
e 103 116
e 103 117
e 103 118
e 119 120
e 119 121
e 119 122
e 119 123
e 119 124
e 119 125
e 119 126
e 119 127
e 119 128
e 119 129
e 119 130
e 119 131
e 132 133
e 132 134
e 132 135
e 132 136
e 132 137
e 132 138
e 132 139
e 132 140
e 132 141
e 132 142
e 132 143
e 132 144
e 132 145
e 132 146
e 132 147
e 132 148
e 132 149
e 150 151
e 150 152
e 150 153
e 150 154
e 150 155
e 150 156
e 150 157
e 150 158
e 150 159
e 150 160
e 150 161
e 150 162
e 150 163
e 150 164
e 150 165
e 150 166
e 150 167
e 168 169
e 168 170
e 168 171
e 168 172
e 168 173
e 168 174
e 168 175
e 168 176
e 168 177
e 168 178
e 168 179
e 168 180
e 168 181
e 182 183
e 182 184
e 182 185
e 182 186
e 182 187
e 182 188
e 182 189
e 182 190
e 182 191
e 182 192
e 182 193
e 182 194
e 182 195
e 182 196
e 182 197
e 182 198
e 182 199
e 200 201
e 200 202
e 200 203
e 200 204
e 200 205
e 200 206
e 200 207
e 200 208
e 200 209
e 200 210
e 200 211
e 200 212
e 200 213
e 200 214
e 200 215
e 200 216
e 217 218
e 217 219
e 217 220
e 217 221
e 217 222
e 217 223
e 217 224
e 217 225
e 217 226
e 217 227
e 217 228
e 217 229
e 217 230
e 217 231
e 217 232
e 217 233
e 217 234
e 217 235
e 217 236
e 237 238
e 237 239
e 237 240
e 237 241
e 237 242
e 237 243
e 237 244
e 237 245
e 237 246
e 237 247
e 237 248
